&control
    calculation = 'scf',
    restart_mode = 'from_scratch',
    verbosity    = 'high',
    wf_collect   =.false.
/

&system
    ibrav = 0,
    nat = 14,
    ntyp = 2,
    ecutwfc = 70,
    nbnd = 35,
    occupations = 'fixed', !for insulators
    degauss = 0.0, ! for insulators
    smearing = 'gaussian' ! default value
/

&electron
    diago_thr_init = 1.0e-7,
    diago_full_acc = .true.
    electron_maxstep = 150,
    diagonalization ='david',
    mixing_mode = 'local-TF',
    mixing_beta = 0.7,
    conv_thr = 1d-7
/

&ion
/

CELL_PARAMETERS (angstrom)
   7.363588492   0.000001000   0.000000000
   0.000000001   4.272655813   0.000000000
   0.000000000   0.000000000  12.000000000


ATOMIC_SPECIES
C   12.01100  C.upf             
H   1.00      H.upf

ATOMIC_POSITIONS (angstrom)
C            -1.7925108230        1.4456517994       -0.0414672295
C             0.6379373039        1.4235971792       -0.3172245562
C             3.0657768079        1.4455042995       -0.0157591793
C            -0.5959562906        0.7133098684       -0.2503074405
C             1.8700368141        0.7135148531       -0.2270262819
C            -3.0402753064       -0.7719313527        0.4823609916
H            -3.0239104491       -1.0594331893        1.5579425823
C            -0.5959562909       -0.7133098686       -0.2503074405
C             1.8700368138       -0.7135148525       -0.2270262819
C            -1.7925108232       -1.4456518000       -0.0414672295
C             0.6379373034       -1.4235971790       -0.3172245562
C             3.0657768077       -1.4455042985       -0.0157591793
C            -3.0402753060        0.7719313517        0.4823609916
H            -3.0239104484        1.0594331883        1.5579425823

K_POINTS {automatic}
10 10 1	0 0 0
