&control
    calculation = 'scf',
    restart_mode = 'from_scratch',
    verbosity = 'high'
    wf_collect = .true.
    pseudo_dir= './'
/
&system
    ibrav = 0,
    nat = 26,
    ntyp = 2,
    nbnd = 60
    ecutwfc = 70 ,
    nbnd = 60,
    occupations = 'fixed',
    degauss = 0.00,
    smearing = 'gaussian'
/
&electrons
    mixing_beta=0.7,
    conv_thr=1d-8
/

CELL_PARAMETERS {angstrom}
  14.468040312   0.000003962   0.000000000
   0.000003237   4.268691962   0.000000000
   0.000000000   0.000000000  12.000000000

ATOMIC_SPECIES
C   12.01100  C.upf
H   1.00      H.upf


ATOMIC_POSITIONS {angstrom}
C            -0.0304453791        0.0195298033        0.5037486781
C            -0.0306962946        1.4027710049        0.5036492551
C            -1.1793044190       -0.7075248433        0.1140425637
C            -1.1788902431        2.1297393804        0.1141713108
C            -2.3626303648       -0.0004950151       -0.2237628217
C            -2.3629672870        1.4227025178       -0.2238398051
C            -3.5736318092       -0.7144783552       -0.4749059346
C            -3.5735011293        2.1366807398       -0.4748875173
C            -4.7967998888        0.0000197427       -0.6275742883
C            -4.7966997919        1.4221807478       -0.6275645959
C            -6.0281893021       -0.7115858332       -0.6763332933
C            -6.0284666478        2.1337959469       -0.6763393898
C            -7.2600970141        0.0000349165       -0.6275576481
C            -7.2597511686        1.4221909029       -0.6275828095
C            -8.4829846514       -0.7144104027       -0.4749222234
C            -8.4832652441        2.1366504485       -0.4748667181
C            -9.6939423546       -0.0005620520       -0.2237769452
C            -9.6938003755        1.4227982365       -0.2238257722
C           -10.8775637053       -0.7074630507        0.1141065908
C           -10.8775649740        2.1297103625        0.1141145787
C           -12.0260813563        0.0194438873        0.5036983182
C           -12.0261208698        1.4027597292        0.5037194447
C           -13.2623850364       -0.6517029932        1.0622098735
C           -13.2623219483        2.0739250992        1.0622220791
H           -13.2623614958        1.7708076167        2.1310290851
H           -13.2623666990       -0.3485844920        2.1310279848
K_POINTS automatic
 4 16 1 0 0 0
